&CONTROL
    calculation  = 'scf',
    title        = 'Nitruro de cromo HCP PG 186',  
    restart_mode = 'from_scratch',
    prefix       = 'CrN.ZB',
    verbosity    = 'high',
    tstress      = .true.,
    tprnfor      = .true.,
    pseudo_dir   = '/opt/espresso-7.2/pseudo'
    outdir       = '/home/user/Desktop/CrN/Basura'
/
&SYSTEM
    ibrav=4, 
    celldm(1) = 7.00000, !3.0875, 3.7164
    celldm(3) = 1.333, 
    nat=6, 
    ntyp= 2, 
    ecutwfc= 50, 
    ecutrho=200,
    occupations='smearing',
    smearing='gaussian',
    degauss=0.01
/
&ELECTRONS 
    mixing_beta = 0.7
    diagonalization='david'
    conv_thr =  1.0d-6
/
ATOMIC_SPECIES
 Cr  51.996 Cr.pbe-sp-van.UPF
  N  14.007  N.pbe-kjpaw.UPF
ATOMIC_POSITIONS {crystal}
Cr 0.000000 0.000000 0.000000
Cr 0.333333 0.666666 0.000000
Cr 0.000000 0.000000 0.500000
Cr 0.666666 0.333333 0.500000
 N 0.333333 0.666666 0.500000
 N 0.666666 0.333333 0.000000
K_POINTS {automatic}
10 10 10 0  0  0
! 
!nohup mpirun -np 8 pw.x < 01_CrN.scf.DOS.in > 01_CrN.scf.DOS.out
!nohup mpirun -np 8 pw.x < 02_CrN.nscf.DOS.in > 02_CrN.nscf.DOS.out
!nohup mpirun -np 8 projwfc.x < 02_CrN.nscf.DOS.in > 02_CrN.nscf.DOS.out
